c "470704.clq"
p edge 100 384
e 1 5
e 1 6
e 1 8
e 1 9
e 1 10
e 1 12
e 1 17
e 1 19
e 1 23
e 1 24
e 1 25
e 1 26
e 1 27
e 1 28
e 1 29
e 1 49
e 1 61
e 1 66
e 1 68
e 1 69
e 1 71
e 1 87
e 1 91
e 2 5
e 2 6
e 2 8
e 2 9
e 2 11
e 2 13
e 2 14
e 2 16
e 2 17
e 2 20
e 2 21
e 2 23
e 2 31
e 2 37
e 2 48
e 2 58
e 2 71
e 2 75
e 2 92
e 2 93
e 3 5
e 3 7
e 3 24
e 3 25
e 4 5
e 4 6
e 4 7
e 4 10
e 4 11
e 4 16
e 4 20
e 4 34
e 4 35
e 4 41
e 4 53
e 4 58
e 4 80
e 4 84
e 5 6
e 5 7
e 5 8
e 5 9
e 5 10
e 5 12
e 5 14
e 5 16
e 5 29
e 5 35
e 5 36
e 5 37
e 5 38
e 5 40
e 5 41
e 5 43
e 5 46
e 5 59
e 5 61
e 5 62
e 5 64
e 5 77
e 5 84
e 5 90
e 5 99
e 6 7
e 6 8
e 6 10
e 6 13
e 6 15
e 6 19
e 6 20
e 6 22
e 6 24
e 6 29
e 6 32
e 6 33
e 6 35
e 6 40
e 6 44
e 6 45
e 6 47
e 6 48
e 6 53
e 6 54
e 6 67
e 6 74
e 6 79
e 6 83
e 6 88
e 6 90
e 7 15
e 7 16
e 7 18
e 7 19
e 7 22
e 7 27
e 7 28
e 7 37
e 7 50
e 7 56
e 7 60
e 7 65
e 7 68
e 7 76
e 7 80
e 7 94
e 8 9
e 8 11
e 8 12
e 8 13
e 8 15
e 8 17
e 8 18
e 8 21
e 8 22
e 8 26
e 8 29
e 8 33
e 8 36
e 8 39
e 8 42
e 8 44
e 8 47
e 8 50
e 8 62
e 8 64
e 8 65
e 8 68
e 8 70
e 8 75
e 8 86
e 8 93
e 8 94
e 8 99
e 9 11
e 9 12
e 9 14
e 9 17
e 9 21
e 9 33
e 9 61
e 9 64
e 9 74
e 9 81
e 9 91
e 10 14
e 10 39
e 10 60
e 10 66
e 10 71
e 10 74
e 10 77
e 10 90
e 10 100
e 11 32
e 11 40
e 11 57
e 11 63
e 11 85
e 12 13
e 12 15
e 12 38
e 12 42
e 12 56
e 12 65
e 12 72
e 12 77
e 12 85
e 12 93
e 13 32
e 13 34
e 13 45
e 13 60
e 13 63
e 13 69
e 13 75
e 13 79
e 14 18
e 14 21
e 14 30
e 14 40
e 14 46
e 14 55
e 14 96
e 15 23
e 15 38
e 15 43
e 15 58
e 15 76
e 15 79
e 15 82
e 16 18
e 16 19
e 16 20
e 16 27
e 16 28
e 16 43
e 16 47
e 16 50
e 16 54
e 16 55
e 16 62
e 16 67
e 16 70
e 16 73
e 16 85
e 17 22
e 17 28
e 17 68
e 17 76
e 18 31
e 18 73
e 18 94
e 19 23
e 19 24
e 19 30
e 19 45
e 19 46
e 19 81
e 19 87
e 19 91
e 19 95
e 20 34
e 20 39
e 20 41
e 20 82
e 21 25
e 21 27
e 21 44
e 21 46
e 21 48
e 21 52
e 21 77
e 21 81
e 21 94
e 21 98
e 21 99
e 21 100
e 22 37
e 22 59
e 22 76
e 23 25
e 23 31
e 23 33
e 23 35
e 23 59
e 23 72
e 24 26
e 24 32
e 24 51
e 24 53
e 25 26
e 25 30
e 25 51
e 25 59
e 25 61
e 25 63
e 26 30
e 26 41
e 27 31
e 27 36
e 27 50
e 27 87
e 28 39
e 28 42
e 28 43
e 28 47
e 28 52
e 28 56
e 28 69
e 28 89
e 28 97
e 29 38
e 29 42
e 29 52
e 29 70
e 29 73
e 29 83
e 30 44
e 30 57
e 30 67
e 31 89
e 32 34
e 32 36
e 32 49
e 32 51
e 32 55
e 32 57
e 32 70
e 32 71
e 32 96
e 33 56
e 34 52
e 35 78
e 35 98
e 36 85
e 37 66
e 37 82
e 37 84
e 38 79
e 39 63
e 40 78
e 41 45
e 41 49
e 41 51
e 41 89
e 41 92
e 41 96
e 41 97
e 41 98
e 42 54
e 42 57
e 42 78
e 42 88
e 42 91
e 42 95
e 43 58
e 43 92
e 44 49
e 44 54
e 44 83
e 45 48
e 45 64
e 45 72
e 45 97
e 45 98
e 46 53
e 46 78
e 51 55
e 51 60
e 51 62
e 51 69
e 51 75
e 51 81
e 51 89
e 51 96
e 52 86
e 53 73
e 54 83
e 56 65
e 59 66
e 59 87
e 59 88
e 60 80
e 62 92
e 64 72
e 66 67
e 66 82
e 66 100
e 67 90
e 68 74
e 68 93
e 68 97
e 70 84
e 70 99
e 72 86
e 78 80
e 79 95
e 82 86
e 82 95
e 83 88
e 89 100
